
Gurobi 7.5.2 (linux64) logging started Sat Jul  7 15:57:31 2018

Changed value of parameter LogFile to result/ilp/simNo_6-n_100-m_40-s_7-minVAF_0.05-cov_10000-k_2-fn_0.10-fp_0.0001-na_0.15.ILP.gurobiSolverLog
   Prev: gurobi.log  Default: 
Changed value of parameter TimeLimit to 86400.0
   Prev: 1e+100  Min: 0.0  Max: 1e+100  Default: 1e+100
Optimize a model with 639293 rows, 10765 columns and 1940420 nonzeros
Variable types: 0 continuous, 10765 integer (10765 binary)
Coefficient statistics:
  Matrix range     [1e-04, 4e+00]
  Objective range  [5e-01, 9e+00]
  Bounds range     [1e+00, 1e+00]
  RHS range        [8e-02, 2e+00]
Found heuristic solution: objective -11164.16187
Presolve removed 142340 rows and 1144 columns (presolve time = 5s) ...
Presolve removed 143038 rows and 1144 columns (presolve time = 11s) ...
Presolve removed 212838 rows and 1842 columns (presolve time = 16s) ...
Presolve removed 212838 rows and 1842 columns
Presolve time: 16.53s
Presolved: 426455 rows, 8923 columns, 1279095 nonzeros
Variable types: 0 continuous, 8923 integer (8923 binary)
Presolved: 8923 rows, 435378 columns, 1288018 nonzeros

Presolve removed 8923 rows and 435378 columns

Root simplex log...

Iteration    Objective       Primal Inf.    Dual Inf.      Time
       0    1.6033884e+01   0.000000e+00   5.133700e+04     20s
   18979   -2.2973102e+02   0.000000e+00   0.000000e+00     23s
   18979   -2.2973102e+02   0.000000e+00   0.000000e+00     24s

Root relaxation: objective -2.297310e+02, 18979 iterations, 6.11 seconds
Total elapsed time = 45.92s
Total elapsed time = 54.94s
Total elapsed time = 61.83s

    Nodes    |    Current Node    |     Objective Bounds      |     Work
 Expl Unexpl |  Obj  Depth IntInf | Incumbent    BestBd   Gap | It/Node Time

     0     0 -229.73102    0  348 -11164.162 -229.73102  97.9%     -   66s
H    0     0                    -651.4643037 -229.73102  64.7%     -   68s
H    0     0                    -280.0077370 -229.73102  18.0%     -   69s
H    0     0                    -244.8640489 -229.73102  6.18%     -   69s
     0     0 -233.15427    0  384 -244.86405 -233.15427  4.78%     -   75s
H    0     0                    -242.3616146 -233.15427  3.80%     -   77s
     0     0 -233.15427    0  382 -242.36161 -233.15427  3.80%     -   78s
     0     0 -233.30356    0  689 -242.36161 -233.30356  3.74%     -  111s
     0     0 -233.30356    0  289 -242.36161 -233.30356  3.74%     -  133s
     0     0 -233.98352    0  486 -242.36161 -233.98352  3.46%     -  135s
     0     0 -233.98352    0  479 -242.36161 -233.98352  3.46%     -  137s
     0     0 -235.59610    0  465 -242.36161 -235.59610  2.79%     -  138s
     0     0 -235.90235    0  467 -242.36161 -235.90235  2.67%     -  139s
     0     0 -235.99307    0  469 -242.36161 -235.99307  2.63%     -  140s
     0     0 -235.99307    0  466 -242.36161 -235.99307  2.63%     -  140s
     0     0 -236.32468    0  381 -242.36161 -236.32468  2.49%     -  146s
     0     0 -236.32468    0  222 -242.36161 -236.32468  2.49%     -  150s
     0     0 -236.57753    0  188 -242.36161 -236.57753  2.39%     -  151s
     0     0 -237.47697    0  267 -242.36161 -237.47697  2.02%     -  152s
     0     0 -237.47697    0  193 -242.36161 -237.47697  2.02%     -  153s
     0     0 -237.47697    0  275 -242.36161 -237.47697  2.02%     -  153s
     0     0 -237.47697    0  246 -242.36161 -237.47697  2.02%     -  153s
     0     0 -237.87563    0  194 -242.36161 -237.87563  1.85%     -  154s
     0     0 -237.87563    0  191 -242.36161 -237.87563  1.85%     -  154s
     0     0 -237.87563    0  256 -242.36161 -237.87563  1.85%     -  154s
     0     0 -237.87563    0  197 -242.36161 -237.87563  1.85%     -  154s
     0     0 -238.15002    0  254 -242.36161 -238.15002  1.74%     -  155s
     0     0 -238.15002    0  184 -242.36161 -238.15002  1.74%     -  155s
     0     0 -238.15002    0  239 -242.36161 -238.15002  1.74%     -  155s
     0     0 -238.18690    0  231 -242.36161 -238.18690  1.72%     -  155s
     0     0 -238.20236    0  241 -242.36161 -238.20236  1.72%     -  155s
     0     0 -238.20236    0  243 -242.36161 -238.20236  1.72%     -  155s
     0     0 -238.29536    0  246 -242.36161 -238.29536  1.68%     -  155s
     0     0 -238.35885    0  216 -242.36161 -238.35885  1.65%     -  155s
     0     0 -238.37503    0  259 -242.36161 -238.37503  1.64%     -  155s
     0     0 -238.40242    0  215 -242.36161 -238.40242  1.63%     -  155s
     0     0 -238.42384    0  181 -242.36161 -238.42384  1.62%     -  155s
     0     0 -238.46523    0  220 -242.36161 -238.46523  1.61%     -  155s
     0     0 -238.56849    0  220 -242.36161 -238.56849  1.57%     -  155s
     0     0 -238.70815    0  215 -242.36161 -238.70815  1.51%     -  155s
     0     0 -238.71785    0  241 -242.36161 -238.71785  1.50%     -  155s
     0     0 -238.77985    0  223 -242.36161 -238.77985  1.48%     -  155s
     0     0 -238.78290    0  255 -242.36161 -238.78290  1.48%     -  155s
     0     0 -238.78923    0  256 -242.36161 -238.78923  1.47%     -  155s
     0     0 -238.78924    0  251 -242.36161 -238.78924  1.47%     -  155s
     0     0 -238.91866    0  241 -242.36161 -238.91866  1.42%     -  156s
     0     0 -238.96101    0  257 -242.36161 -238.96101  1.40%     -  156s
     0     0 -238.96522    0  243 -242.36161 -238.96522  1.40%     -  156s
     0     0 -238.96522    0  243 -242.36161 -238.96522  1.40%     -  156s
     0     0 -239.01824    0  246 -242.36161 -239.01824  1.38%     -  156s
H    0     0                    -240.4669513 -239.01824  0.60%     -  156s
     0     0 -239.01824    0  247 -240.46695 -239.01824  0.60%     -  156s
     0     0 -239.02392    0  232 -240.46695 -239.02392  0.60%     -  156s
     0     0 -239.02392    0  164 -240.46695 -239.02392  0.60%     -  156s
     0     0 -239.02392    0  195 -240.46695 -239.02392  0.60%     -  156s
     0     0 -239.02392    0  194 -240.46695 -239.02392  0.60%     -  156s
     0     0 -239.05483    0  194 -240.46695 -239.05483  0.59%     -  156s
     0     0 -239.12918    0  191 -240.46695 -239.12918  0.56%     -  156s
     0     0 -239.61225    0  191 -240.46695 -239.61225  0.36%     -  156s
     0     0 -239.73080    0  193 -240.46695 -239.73080  0.31%     -  156s
     0     0 -239.77647    0  193 -240.46695 -239.77647  0.29%     -  156s
     0     0 -239.78998    0  195 -240.46695 -239.78998  0.28%     -  156s
     0     0 -239.78998    0  195 -240.46695 -239.78998  0.28%     -  156s
     0     0 -239.94972    0  191 -240.46695 -239.94972  0.22%     -  156s
     0     0 -239.99753    0  197 -240.46695 -239.99753  0.20%     -  156s
     0     0 -240.06459    0  194 -240.46695 -240.06459  0.17%     -  156s
     0     0 -240.22897    0  196 -240.46695 -240.22897  0.10%     -  156s
     0     0 -240.22897    0  196 -240.46695 -240.22897  0.10%     -  156s
     0     0     cutoff    0      -240.46695 -240.46695  0.00%     -  156s

Cutting planes:
  Gomory: 8
  Implied bound: 4
  Clique: 2
  Zero half: 47

Explored 1 nodes (66387 simplex iterations) in 156.86 seconds
Thread count was 1 (of 80 available processors)

Solution count 10: -240.467 -240.467 -242.362 ... -280.008

Optimal solution found (tolerance 1.00e-04)
Best objective -2.404669513353e+02, best bound -2.404669513353e+02, gap 0.0000%
